1884293
1,47,13,54,4,48,2,27,45,17,9,58,15,8,68,35,53,37,51,39,62,36,59,16,63,28,50,31,22,52,14,57,33,18,10,44,20,65,12,42,61,24,3,21,32,56,40,5,60,29,25,30,41,64,67,38,7,43,34,55,46,11,66,26,6,23,49,19,1